
  14    0


   0   8 2 4 5 9 10 11 12 13 
   7   2 8 3 
   7   1 6 
   4   1 7 
   6   1 6 
   6   1 14
   5   1 14
   3   1 14
   8   1 14
   9   1 14
  10   1 14
   7   1 14
   2   1 14
   0   0 
